<number of tasks>
50

<cycle time>
1000

<order strength>
0.598


<task times>
1 31
2 538
3 237
4 83
5 173
6 106
7 90
8 606
9 473
10 62
11 236
12 59
13 44
14 20
15 168
16 515
17 100
18 372
19 202
20 160
21 52
22 205
23 280
24 110
25 318
26 112
27 326
28 172
29 501
30 477
31 67
32 281
33 93
34 180
35 525
36 318
37 591
38 378
39 399
40 126
41 125
42 150
43 121
44 558
45 96
46 80
47 27
48 158
49 52
50 112

<precedence relations>
1,4
2,5
2,6
2,7
2,8
3,6
3,7
3,8
4,10
5,9
6,10
6,11
7,10
7,11
8,10
8,11
9,12
10,13
10,14
10,15
10,16
10,17
11,13
11,14
11,15
11,16
11,17
12,18
13,19
13,20
13,21
13,22
14,20
14,21
14,22
15,20
15,21
15,22
16,20
16,21
16,22
17,20
17,21
17,22
18,24
19,23
20,24
20,25
20,26
21,24
21,25
21,26
22,24
22,25
22,26
23,27
24,28
24,29
24,39
24,41
25,30
25,31
25,39
26,31
27,32
28,33
29,34
30,35
31,36
32,39
33,37
34,40
35,41
36,38
36,40
36,42
36,43
36,44
37,46
38,45
38,47
39,49
40,49
41,49
42,49
42,50
43,47
43,49
45,48
46,49
47,50

<end>
